NAME : LPS-n15-m375
COMMENT : (Lartu-Peter-Santi Plot, instance 5175 out of 39200. 15 customers.)
TYPE : CVRP
DIMENSION : 15
EDGE_WEIGHT_TYPE : EUC_2D
CAPACITY : 78
NODE_COORD_SECTION
 1 37 28
 2 17 78
 3 71 54
 4 24 89
 5 64 22
 6 29 50
 7 89 16
 8 78 9
 9 24 50
 10 71 8
 11 97 0
 12 88 67
 13 56 50
 14 91 85
 15 1 54
DEMAND_SECTION
1 0
2 54
3 45
4 33
5 9
6 14
7 63
8 73
9 40
10 42
11 4
12 43
13 38
14 41
15 43
DEPOT_SECTION
 1
 -1
EOF
